100 2519
0 3
0 4
0 5
0 9
0 11
0 13
0 19
0 20
0 21
0 22
0 25
0 27
0 29
0 31
0 34
0 35
0 36
0 38
0 43
0 44
0 47
0 48
0 49
0 50
0 52
0 53
0 54
0 55
0 56
0 59
0 60
0 66
0 68
0 69
0 70
0 72
0 74
0 75
0 81
0 82
0 85
0 87
0 93
0 94
0 95
0 97
1 4
1 6
1 7
1 10
1 11
1 14
1 16
1 17
1 22
1 24
1 26
1 27
1 29
1 30
1 33
1 36
1 37
1 38
1 39
1 40
1 41
1 42
1 44
1 53
1 54
1 55
1 57
1 60
1 61
1 66
1 67
1 70
1 71
1 72
1 73
1 74
1 75
1 78
1 79
1 80
1 82
1 84
1 85
1 86
1 88
1 89
1 90
1 94
1 96
2 3
2 4
2 5
2 6
2 7
2 10
2 12
2 13
2 18
2 23
2 25
2 26
2 28
2 30
2 34
2 38
2 40
2 42
2 43
2 45
2 46
2 47
2 48
2 50
2 51
2 56
2 57
2 61
2 62
2 64
2 65
2 67
2 68
2 70
2 72
2 73
2 74
2 77
2 78
2 80
2 85
2 86
2 87
2 90
2 92
2 93
2 95
2 96
2 97
3 5
3 6
3 7
3 9
3 10
3 13
3 14
3 15
3 17
3 19
3 20
3 21
3 22
3 26
3 27
3 28
3 29
3 30
3 31
3 32
3 36
3 39
3 40
3 41
3 42
3 43
3 44
3 45
3 49
3 50
3 51
3 52
3 54
3 57
3 58
3 61
3 62
3 63
3 64
3 69
3 70
3 72
3 73
3 77
3 82
3 83
3 84
3 87
3 91
3 96
4 7
4 8
4 9
4 10
4 15
4 16
4 17
4 18
4 20
4 24
4 25
4 26
4 27
4 29
4 30
4 31
4 32
4 33
4 34
4 35
4 36
4 37
4 40
4 41
4 42
4 44
4 53
4 54
4 55
4 56
4 57
4 59
4 61
4 66
4 68
4 70
4 77
4 78
4 79
4 80
4 81
4 82
4 83
4 87
4 91
4 92
4 93
4 95
5 7
5 8
5 9
5 13
5 15
5 16
5 18
5 19
5 20
5 21
5 22
5 23
5 24
5 26
5 27
5 28
5 34
5 40
5 41
5 42
5 43
5 47
5 48
5 50
5 51
5 53
5 55
5 57
5 58
5 59
5 60
5 61
5 62
5 65
5 70
5 72
5 74
5 75
5 79
5 86
5 87
5 88
5 89
5 90
5 91
5 92
5 94
6 7
6 9
6 11
6 12
6 13
6 18
6 19
6 20
6 21
6 22
6 23
6 24
6 26
6 28
6 29
6 31
6 32
6 33
6 39
6 42
6 44
6 45
6 48
6 49
6 50
6 55
6 61
6 63
6 64
6 65
6 67
6 71
6 73
6 75
6 76
6 79
6 81
6 82
6 83
6 85
6 86
6 88
6 90
6 92
6 93
6 94
6 97
6 98
6 99
7 11
7 12
7 14
7 16
7 17
7 18
7 19
7 21
7 22
7 23
7 28
7 29
7 30
7 31
7 34
7 36
7 39
7 40
7 45
7 46
7 51
7 52
7 53
7 56
7 60
7 61
7 62
7 63
7 64
7 68
7 71
7 72
7 75
7 76
7 78
7 85
7 92
7 93
7 94
7 96
7 99
8 9
8 10
8 11
8 12
8 13
8 14
8 16
8 18
8 19
8 20
8 22
8 23
8 28
8 38
8 40
8 43
8 44
8 48
8 49
8 50
8 51
8 53
8 54
8 56
8 57
8 58
8 60
8 61
8 62
8 63
8 66
8 68
8 69
8 70
8 71
8 72
8 75
8 76
8 78
8 84
8 86
8 89
8 90
8 92
8 95
8 97
8 98
8 99
9 10
9 11
9 12
9 13
9 16
9 18
9 19
9 20
9 21
9 22
9 25
9 28
9 29
9 34
9 39
9 40
9 41
9 43
9 44
9 47
9 48
9 51
9 52
9 55
9 57
9 58
9 59
9 60
9 61
9 63
9 64
9 66
9 68
9 72
9 73
9 75
9 76
9 77
9 78
9 79
9 81
9 83
9 84
9 88
9 91
9 93
9 94
9 97
9 99
10 12
10 13
10 14
10 15
10 18
10 19
10 20
10 21
10 23
10 26
10 27
10 31
10 37
10 38
10 44
10 46
10 48
10 49
10 50
10 51
10 52
10 53
10 54
10 55
10 57
10 59
10 60
10 61
10 63
10 67
10 70
10 74
10 75
10 77
10 79
10 81
10 84
10 85
10 89
10 91
10 94
10 97
11 12
11 13
11 14
11 16
11 18
11 20
11 21
11 24
11 25
11 33
11 37
11 38
11 39
11 41
11 47
11 51
11 52
11 55
11 56
11 57
11 58
11 63
11 64
11 65
11 67
11 68
11 70
11 74
11 76
11 79
11 80
11 85
11 86
11 87
11 88
11 92
11 93
11 94
11 95
11 96
11 98
12 13
12 14
12 15
12 16
12 17
12 19
12 21
12 22
12 24
12 25
12 26
12 29
12 31
12 32
12 33
12 35
12 39
12 47
12 48
12 49
12 51
12 52
12 54
12 58
12 59
12 61
12 67
12 69
12 71
12 72
12 73
12 75
12 76
12 78
12 80
12 81
12 85
12 86
12 87
12 88
12 89
12 90
12 92
12 93
12 94
12 99
13 15
13 16
13 17
13 18
13 21
13 22
13 24
13 25
13 29
13 30
13 33
13 34
13 35
13 38
13 41
13 42
13 44
13 47
13 51
13 53
13 54
13 55
13 57
13 58
13 59
13 67
13 68
13 69
13 70
13 71
13 75
13 76
13 77
13 78
13 79
13 84
13 89
13 90
13 91
13 92
13 93
13 94
13 95
13 97
13 98
13 99
14 15
14 19
14 20
14 25
14 26
14 28
14 30
14 31
14 32
14 33
14 40
14 41
14 42
14 43
14 44
14 46
14 47
14 49
14 50
14 54
14 56
14 58
14 59
14 60
14 64
14 65
14 66
14 67
14 68
14 69
14 71
14 72
14 73
14 76
14 83
14 85
14 88
14 92
14 96
14 99
15 16
15 17
15 19
15 20
15 21
15 22
15 25
15 26
15 27
15 28
15 30
15 31
15 32
15 33
15 35
15 36
15 37
15 38
15 43
15 44
15 45
15 48
15 54
15 55
15 57
15 58
15 59
15 61
15 62
15 63
15 64
15 66
15 71
15 72
15 73
15 75
15 78
15 80
15 81
15 82
15 83
15 85
15 87
15 88
15 89
15 90
15 91
15 92
15 93
15 94
15 95
15 97
15 99
16 17
16 19
16 20
16 21
16 23
16 25
16 27
16 28
16 30
16 32
16 33
16 34
16 35
16 36
16 38
16 42
16 43
16 44
16 47
16 50
16 51
16 58
16 59
16 60
16 64
16 65
16 68
16 69
16 74
16 75
16 76
16 78
16 80
16 83
16 84
16 85
16 88
16 89
16 91
16 92
16 93
16 94
16 96
16 98
16 99
17 19
17 20
17 21
17 22
17 27
17 28
17 29
17 31
17 32
17 33
17 36
17 37
17 38
17 43
17 45
17 47
17 48
17 50
17 51
17 52
17 53
17 57
17 60
17 62
17 64
17 67
17 68
17 72
17 73
17 74
17 76
17 78
17 83
17 86
17 89
17 90
17 91
17 97
18 19
18 23
18 24
18 30
18 32
18 35
18 36
18 37
18 39
18 41
18 45
18 46
18 48
18 53
18 54
18 57
18 58
18 60
18 62
18 63
18 66
18 67
18 69
18 70
18 71
18 74
18 75
18 76
18 79
18 85
18 88
18 90
18 91
18 95
18 97
18 98
19 21
19 25
19 26
19 27
19 28
19 30
19 31
19 32
19 33
19 38
19 39
19 40
19 41
19 42
19 46
19 47
19 49
19 51
19 55
19 56
19 57
19 58
19 62
19 63
19 66
19 67
19 70
19 71
19 72
19 73
19 74
19 75
19 79
19 80
19 81
19 82
19 83
19 84
19 87
19 88
19 89
19 90
19 91
19 94
19 95
19 97
19 98
19 99
20 22
20 23
20 25
20 29
20 30
20 31
20 34
20 35
20 37
20 38
20 40
20 41
20 43
20 45
20 46
20 47
20 48
20 51
20 52
20 53
20 58
20 60
20 62
20 63
20 64
20 65
20 66
20 67
20 69
20 74
20 75
20 76
20 77
20 79
20 80
20 81
20 83
20 85
20 88
20 90
20 91
20 92
20 93
20 94
20 95
21 23
21 24
21 25
21 26
21 27
21 28
21 34
21 35
21 36
21 38
21 39
21 41
21 43
21 46
21 48
21 49
21 53
21 54
21 56
21 57
21 59
21 62
21 67
21 69
21 71
21 73
21 75
21 76
21 79
21 81
21 82
21 83
21 84
21 88
21 91
21 92
21 95
21 96
21 98
21 99
22 26
22 27
22 28
22 29
22 31
22 32
22 34
22 40
22 41
22 44
22 45
22 46
22 47
22 48
22 49
22 50
22 54
22 55
22 56
22 58
22 59
22 60
22 61
22 65
22 67
22 68
22 69
22 70
22 71
22 74
22 77
22 78
22 79
22 81
22 82
22 83
22 85
22 87
22 91
22 92
22 95
22 96
22 97
22 98
23 26
23 28
23 29
23 30
23 31
23 34
23 35
23 37
23 39
23 40
23 43
23 45
23 46
23 48
23 49
23 50
23 51
23 52
23 53
23 54
23 56
23 60
23 62
23 64
23 65
23 66
23 67
23 68
23 69
23 71
23 76
23 79
23 80
23 82
23 83
23 84
23 86
23 89
23 91
23 94
23 98
23 99
24 28
24 29
24 30
24 32
24 33
24 34
24 37
24 40
24 42
24 43
24 46
24 48
24 49
24 50
24 55
24 56
24 57
24 59
24 61
24 62
24 68
24 69
24 76
24 80
24 83
24 86
24 87
24 88
24 89
24 90
24 92
24 93
24 94
24 97
24 98
24 99
25 27
25 29
25 30
25 31
25 37
25 38
25 40
25 43
25 46
25 52
25 53
25 54
25 55
25 56
25 57
25 59
25 61
25 64
25 65
25 66
25 69
25 71
25 73
25 75
25 77
25 78
25 80
25 82
25 84
25 85
25 86
25 87
25 88
25 89
25 90
25 91
25 92
25 93
25 94
25 96
25 97
25 98
25 99
26 27
26 28
26 30
26 31
26 34
26 35
26 38
26 39
26 40
26 41
26 43
26 44
26 46
26 47
26 49
26 50
26 53
26 55
26 58
26 59
26 60
26 61
26 62
26 63
26 66
26 67
26 73
26 75
26 79
26 80
26 86
26 87
26 89
26 91
26 92
26 94
26 98
26 99
27 30
27 31
27 34
27 35
27 36
27 39
27 40
27 41
27 42
27 43
27 44
27 45
27 47
27 48
27 51
27 53
27 54
27 56
27 58
27 59
27 62
27 63
27 65
27 66
27 69
27 72
27 76
27 77
27 79
27 80
27 85
27 86
27 89
27 92
27 95
27 97
27 98
28 32
28 34
28 35
28 36
28 37
28 40
28 41
28 43
28 44
28 47
28 49
28 50
28 51
28 52
28 54
28 56
28 58
28 60
28 61
28 63
28 65
28 66
28 68
28 71
28 73
28 77
28 81
28 82
28 86
28 87
28 88
28 90
28 92
28 95
28 96
28 97
28 99
29 30
29 31
29 35
29 36
29 39
29 41
29 48
29 49
29 50
29 52
29 54
29 57
29 59
29 60
29 61
29 62
29 64
29 65
29 66
29 70
29 72
29 73
29 76
29 78
29 83
29 84
29 86
29 89
29 91
29 92
29 93
29 97
29 98
29 99
30 31
30 33
30 34
30 38
30 39
30 41
30 43
30 44
30 47
30 48
30 49
30 50
30 51
30 56
30 57
30 59
30 60
30 62
30 66
30 67
30 68
30 69
30 70
30 72
30 74
30 76
30 80
30 81
30 89
30 94
30 96
30 97
30 99
31 32
31 33
31 34
31 38
31 39
31 44
31 47
31 48
31 53
31 54
31 56
31 60
31 63
31 64
31 65
31 67
31 69
31 70
31 71
31 72
31 73
31 81
31 82
31 83
31 84
31 85
31 86
31 90
31 91
31 93
31 94
31 95
31 96
31 98
31 99
32 33
32 35
32 36
32 38
32 39
32 45
32 46
32 47
32 54
32 55
32 59
32 60
32 61
32 62
32 65
32 68
32 71
32 73
32 78
32 80
32 83
32 86
32 89
32 91
32 94
32 95
32 96
33 34
33 37
33 39
33 43
33 45
33 46
33 48
33 50
33 52
33 54
33 57
33 60
33 63
33 64
33 67
33 69
33 72
33 74
33 76
33 77
33 80
33 82
33 83
33 87
33 88
33 90
33 91
33 93
33 97
33 98
34 35
34 37
34 38
34 39
34 41
34 42
34 43
34 45
34 48
34 50
34 51
34 52
34 53
34 56
34 57
34 59
34 60
34 61
34 62
34 65
34 68
34 69
34 71
34 72
34 73
34 75
34 76
34 77
34 78
34 79
34 80
34 81
34 82
34 84
34 86
34 88
34 89
34 91
34 93
34 94
34 99
35 36
35 37
35 39
35 41
35 42
35 44
35 45
35 46
35 47
35 48
35 49
35 51
35 52
35 53
35 57
35 60
35 65
35 66
35 67
35 69
35 70
35 72
35 74
35 77
35 78
35 82
35 84
35 85
35 86
35 87
35 88
35 90
35 93
35 96
35 97
35 98
36 38
36 39
36 40
36 41
36 42
36 43
36 44
36 46
36 49
36 50
36 52
36 53
36 54
36 56
36 57
36 58
36 59
36 61
36 65
36 66
36 68
36 70
36 74
36 77
36 79
36 80
36 82
36 83
36 86
36 90
36 94
36 95
36 98
37 40
37 42
37 44
37 46
37 49
37 50
37 51
37 52
37 54
37 57
37 59
37 60
37 61
37 62
37 65
37 67
37 69
37 70
37 74
37 79
37 82
37 85
37 86
37 87
37 90
37 91
37 93
37 95
37 96
37 98
37 99
38 39
38 44
38 45
38 52
38 54
38 56
38 60
38 65
38 66
38 67
38 68
38 69
38 71
38 72
38 77
38 78
38 80
38 82
38 83
38 88
38 90
38 95
39 42
39 44
39 48
39 50
39 53
39 55
39 56
39 63
39 65
39 70
39 74
39 75
39 81
39 83
39 86
39 87
39 89
39 90
39 93
39 94
39 97
40 41
40 42
40 43
40 44
40 45
40 49
40 51
40 56
40 60
40 61
40 62
40 63
40 67
40 68
40 71
40 72
40 75
40 76
40 78
40 79
40 80
40 81
40 82
40 83
40 85
40 87
40 88
40 92
40 94
40 95
40 96
41 43
41 44
41 45
41 46
41 52
41 54
41 56
41 57
41 58
41 59
41 61
41 62
41 64
41 68
41 69
41 72
41 73
41 76
41 77
41 78
41 80
41 82
41 83
41 85
41 86
41 87
41 89
41 91
41 92
41 93
41 95
41 96
41 97
41 99
42 43
42 44
42 46
42 47
42 48
42 49
42 50
42 51
42 53
42 54
42 56
42 57
42 58
42 60
42 65
42 66
42 70
42 72
42 73
42 75
42 78
42 83
42 87
42 88
42 90
42 91
42 92
42 93
42 95
42 96
42 98
42 99
43 45
43 47
43 49
43 50
43 51
43 52
43 56
43 57
43 58
43 59
43 60
43 61
43 64
43 65
43 67
43 68
43 70
43 71
43 74
43 75
43 77
43 78
43 80
43 83
43 84
43 85
43 86
43 87
43 88
43 89
43 90
43 92
43 93
43 95
43 99
44 50
44 51
44 52
44 54
44 57
44 62
44 63
44 64
44 65
44 71
44 72
44 74
44 75
44 77
44 79
44 83
44 87
44 88
44 89
44 90
44 92
44 93
44 94
44 95
44 97
44 99
45 47
45 48
45 49
45 53
45 54
45 55
45 57
45 61
45 65
45 68
45 73
45 74
45 77
45 79
45 80
45 81
45 84
45 85
45 86
45 87
45 90
45 93
45 95
45 96
46 48
46 49
46 50
46 51
46 52
46 54
46 56
46 57
46 58
46 61
46 62
46 63
46 65
46 66
46 67
46 68
46 69
46 70
46 72
46 73
46 78
46 79
46 80
46 81
46 83
46 84
46 86
46 87
46 88
46 89
46 93
46 95
46 96
46 97
46 98
46 99
47 48
47 49
47 50
47 52
47 53
47 54
47 56
47 59
47 61
47 62
47 63
47 64
47 65
47 67
47 68
47 69
47 70
47 73
47 75
47 78
47 81
47 85
47 86
47 87
47 88
47 92
47 93
47 94
47 96
48 51
48 52
48 53
48 55
48 56
48 59
48 60
48 61
48 62
48 66
48 68
48 71
48 72
48 74
48 78
48 79
48 80
48 82
48 85
48 87
48 91
48 92
48 93
48 94
48 96
48 98
49 50
49 51
49 52
49 53
49 54
49 56
49 60
49 61
49 62
49 63
49 68
49 69
49 70
49 71
49 73
49 74
49 75
49 76
49 79
49 80
49 81
49 85
49 87
49 89
49 95
49 96
49 99
50 53
50 54
50 55
50 56
50 57
50 58
50 59
50 60
50 61
50 62
50 63
50 64
50 69
50 70
50 72
50 73
50 74
50 75
50 76
50 80
50 81
50 82
50 83
50 84
50 85
50 87
50 88
50 89
50 90
50 92
50 94
50 95
50 99
51 54
51 55
51 63
51 64
51 65
51 66
51 69
51 74
51 75
51 76
51 78
51 79
51 80
51 84
51 87
51 90
51 95
51 99
52 54
52 56
52 57
52 58
52 59
52 65
52 66
52 67
52 77
52 78
52 80
52 83
52 88
52 89
52 90
52 91
52 94
52 95
52 96
52 99
53 54
53 60
53 61
53 62
53 63
53 64
53 68
53 70
53 71
53 72
53 73
53 76
53 78
53 79
53 81
53 82
53 83
53 84
53 85
53 90
53 91
53 93
53 94
53 95
53 99
54 56
54 58
54 59
54 60
54 62
54 64
54 68
54 71
54 72
54 75
54 76
54 77
54 81
54 84
54 85
54 86
54 88
54 90
54 91
54 93
54 94
54 95
54 98
55 57
55 59
55 60
55 61
55 62
55 63
55 71
55 73
55 74
55 78
55 79
55 81
55 82
55 84
55 85
55 87
55 88
55 89
55 90
55 91
55 96
55 97
55 98
55 99
56 57
56 64
56 65
56 66
56 69
56 71
56 72
56 75
56 78
56 79
56 80
56 81
56 84
56 86
56 87
56 90
56 96
56 98
56 99
57 58
57 59
57 60
57 61
57 63
57 64
57 65
57 68
57 70
57 71
57 72
57 74
57 75
57 77
57 79
57 80
57 81
57 82
57 84
57 85
57 86
57 89
57 91
57 92
57 95
57 99
58 61
58 66
58 69
58 71
58 73
58 75
58 77
58 80
58 81
58 84
58 85
58 86
58 87
58 88
58 90
58 91
58 94
58 97
58 99
59 64
59 68
59 69
59 70
59 71
59 76
59 81
59 82
59 84
59 87
59 88
59 91
59 92
59 94
59 95
59 96
59 99
60 61
60 63
60 65
60 68
60 71
60 72
60 76
60 79
60 80
60 81
60 82
60 86
60 90
60 91
60 95
60 97
60 98
61 62
61 63
61 66
61 67
61 72
61 73
61 75
61 76
61 77
61 78
61 79
61 83
61 87
61 89
61 98
62 67
62 68
62 69
62 71
62 73
62 74
62 75
62 76
62 77
62 78
62 79
62 81
62 85
62 86
62 87
62 90
62 95
62 97
62 98
62 99
63 65
63 66
63 67
63 68
63 70
63 71
63 73
63 75
63 76
63 85
63 87
63 88
63 89
63 94
63 95
63 97
63 98
64 65
64 67
64 70
64 71
64 72
64 76
64 80
64 82
64 83
64 89
64 90
64 92
64 93
64 97
65 66
65 68
65 70
65 71
65 73
65 75
65 77
65 79
65 80
65 81
65 82
65 83
65 87
65 88
65 92
65 93
65 94
65 95
65 96
65 97
65 99
66 70
66 72
66 74
66 75
66 76
66 77
66 78
66 82
66 85
66 86
66 89
66 90
66 91
66 93
66 98
67 68
67 69
67 71
67 74
67 75
67 77
67 79
67 81
67 82
67 83
67 84
67 90
67 94
67 95
67 97
68 70
68 71
68 73
68 74
68 79
68 81
68 83
68 84
68 85
68 86
68 88
68 93
68 94
68 97
68 98
69 71
69 73
69 75
69 77
69 80
69 85
69 87
69 90
69 92
69 95
69 96
69 97
69 98
69 99
70 80
70 81
70 82
70 83
70 85
70 86
70 87
70 89
70 91
70 94
70 95
70 98
71 75
71 77
71 80
71 82
71 83
71 84
71 88
71 91
71 96
71 98
71 99
72 75
72 76
72 77
72 79
72 80
72 82
72 87
72 89
72 90
72 91
72 93
72 94
72 98
73 74
73 75
73 78
73 79
73 81
73 82
73 83
73 85
73 86
73 90
73 92
73 94
73 95
74 79
74 80
74 82
74 83
74 84
74 89
74 90
74 91
74 95
74 98
74 99
75 78
75 79
75 81
75 85
75 86
75 87
75 88
75 90
75 91
75 92
75 93
75 94
75 96
76 77
76 78
76 79
76 82
76 83
76 85
76 86
76 88
76 89
76 90
76 91
76 93
76 96
76 97
77 78
77 81
77 83
77 84
77 85
77 86
77 87
77 88
77 90
77 95
77 96
77 98
77 99
78 79
78 81
78 82
78 84
78 86
78 88
78 89
78 93
78 96
78 98
79 80
79 82
79 84
79 85
79 86
79 87
79 88
79 91
79 94
79 95
79 96
79 98
80 81
80 83
80 86
80 89
80 90
80 91
80 92
80 93
80 94
80 97
81 82
81 83
81 88
81 89
81 96
81 98
82 84
82 90
82 91
82 92
82 94
82 95
82 98
83 84
83 85
83 87
83 89
83 90
83 94
83 95
83 98
83 99
84 87
84 88
84 89
84 90
84 93
84 94
84 96
84 97
84 98
84 99
85 86
85 89
85 92
85 95
85 96
85 98
85 99
86 91
86 92
86 93
86 94
86 95
86 96
86 97
86 98
87 88
87 89
87 90
87 95
87 96
87 97
88 91
88 94
88 95
88 97
88 98
88 99
89 90
89 95
89 97
89 99
90 91
90 93
90 96
90 99
91 92
91 93
91 95
92 93
92 94
92 95
92 99
93 95
93 96
93 97
93 98
93 99
94 96
95 97
95 99
96 98
97 99
